50 4
0 0 0 2
0 25 50 2.3
0 50 107.5 1.5
0 75 145 3.6
1 0 0 2
1 25 50 2.3
1 50 107.5 1.5
1 75 145 3.6
2 0 0 2
2 25 50 2.3
2 50 107.5 1.5
2 75 145 3.6
3 0 0 2
3 25 50 2.3
3 50 107.5 1.5
3 75 145 3.6
4 0 0 2
4 25 50 2.3
4 50 107.5 1.5
4 75 145 3.6
5 0 0 2
5 25 50 2.3
5 50 107.5 1.5
5 75 145 3.6
6 0 0 2
6 25 50 2.3
6 50 107.5 1.5
6 75 145 3.6
7 0 0 2
7 25 50 2.3
7 50 107.5 1.5
7 75 145 3.6
8 0 0 2
8 25 50 2.3
8 50 107.5 1.5
8 75 145 3.6
9 0 0 2
9 25 50 2.3
9 50 107.5 1.5
9 75 145 3.6
10 0 0 2
10 25 50 2.3
10 50 107.5 1.5
10 75 145 3.6
11 0 0 2
11 25 50 2.3
11 50 107.5 1.5
11 75 145 3.6
12 0 0 2
12 25 50 2.3
12 50 107.5 1.5
12 75 145 3.6
13 0 0 2
13 25 50 2.3
13 50 107.5 1.5
13 75 145 3.6
14 0 0 2
14 25 50 2.3
14 50 107.5 1.5
14 75 145 3.6
15 0 0 2
15 25 50 2.3
15 50 107.5 1.5
15 75 145 3.6
16 0 0 2
16 25 50 2.3
16 50 107.5 1.5
16 75 145 3.6
17 0 0 2
17 25 50 2.3
17 50 107.5 1.5
17 75 145 3.6
18 0 0 2
18 25 50 2.3
18 50 107.5 1.5
18 75 145 3.6
19 0 0 2
19 25 50 2.3
19 50 107.5 1.5
19 75 145 3.6
20 0 0 2
20 25 50 2.3
20 50 107.5 1.5
20 75 145 3.6
21 0 0 2
21 25 50 2.3
21 50 107.5 1.5
21 75 145 3.6
22 0 0 2
22 25 50 2.3
22 50 107.5 1.5
22 75 145 3.6
23 0 0 2
23 25 50 2.3
23 50 107.5 1.5
23 75 145 3.6
24 0 0 2
24 25 50 2.3
24 50 107.5 1.5
24 75 145 3.6
25 0 0 2
25 25 50 2.3
25 50 107.5 1.5
25 75 145 3.6
26 0 0 2
26 25 50 2.3
26 50 107.5 1.5
26 75 145 3.6
27 0 0 2
27 25 50 2.3
27 50 107.5 1.5
27 75 145 3.6
28 0 0 2
28 25 50 2.3
28 50 107.5 1.5
28 75 145 3.6
29 0 0 2
29 25 50 2.3
29 50 107.5 1.5
29 75 145 3.6
30 0 0 2
30 25 50 2.3
30 50 107.5 1.5
30 75 145 3.6
31 0 0 2
31 25 50 2.3
31 50 107.5 1.5
31 75 145 3.6
32 0 0 2
32 25 50 2.3
32 50 107.5 1.5
32 75 145 3.6
33 0 0 2
33 25 50 2.3
33 50 107.5 1.5
33 75 145 3.6
34 0 0 2
34 25 50 2.3
34 50 107.5 1.5
34 75 145 3.6
35 0 0 2
35 25 50 2.3
35 50 107.5 1.5
35 75 145 3.6
36 0 0 2
36 25 50 2.3
36 50 107.5 1.5
36 75 145 3.6
37 0 0 2
37 25 50 2.3
37 50 107.5 1.5
37 75 145 3.6
38 0 0 2
38 25 50 2.3
38 50 107.5 1.5
38 75 145 3.6
39 0 0 2
39 25 50 2.3
39 50 107.5 1.5
39 75 145 3.6
40 0 0 2
40 25 50 2.3
40 50 107.5 1.5
40 75 145 3.6
41 0 0 2
41 25 50 2.3
41 50 107.5 1.5
41 75 145 3.6
42 0 0 2
42 25 50 2.3
42 50 107.5 1.5
42 75 145 3.6
43 0 0 2
43 25 50 2.3
43 50 107.5 1.5
43 75 145 3.6
44 0 0 2
44 25 50 2.3
44 50 107.5 1.5
44 75 145 3.6
45 0 0 2
45 25 50 2.3
45 50 107.5 1.5
45 75 145 3.6
46 0 0 2
46 25 50 2.3
46 50 107.5 1.5
46 75 145 3.6
47 0 0 2
47 25 50 2.3
47 50 107.5 1.5
47 75 145 3.6
48 0 0 2
48 25 50 2.3
48 50 107.5 1.5
48 75 145 3.6
49 0 0 2
49 25 50 2.3
49 50 107.5 1.5
49 75 145 3.6
